879784
1,203,171,167,92,44,229,211,212,58,57,138,10,28,83,192,194,118,199,197,64,163,153,213,124,173,75,56,142,196,45,226,18,110,133,47,46,224,12,16,175,222,43,193,164,13,109,200,113,9,85,180,187,123,24,220,51,131,79,181,130,172,147,60,122,84,94,78,166,135,205,217,125,50,97,41,112,159,176,121,208,72,69,151,190,7,119,96,29,219,63,4,136,116,35,6,0,117,139,134,161,82,156,42,30,158,207,2,137,59,184,14,22,68,225,198,177,126,66,73,38,206,146,48,70,15,188,162,31,62,71,209,182,19,107,34,93,228,132,154,111,86,150,27,49,61,54,39,26,168,101,80,129,77,214,74,33,191,36,178,106,115,195,183,100,90,21,88,204,160,165,95,8,143,25,67,210,144,155,5,3,20,89,169,141,185,170,149,108,227,87,152,216,32,223,128,145,11,186,102,37,202,103,81,120,76,221,127,23,65,98,104,215,91,52,17,55,53,174,99,201,189,218,105,140,40,179,157,148,114
